NAME 
ROWS
 N  OBJ
 L  R0      
 L  R1      
 E  R2      
 E  R3      
 E  R4      
 E  R5      
 E  R6      
COLUMNS
    MARKER    'MARKER'                 'INTORG'
    I0(4)     OBJ       -137
    I0(4)     R0        -151
    I0(4)     R1        44
    I0(4)     R4        5
    I0(4)     R6        1
    I1(4)     OBJ       -99
    I1(4)     R0        111
    I1(4)     R1        199
    I1(4)     R3        13
    I1(4)     R6        1
    I2(5)     OBJ       102
    I2(5)     R0        79
    I2(5)     R1        -21
    I2(5)     R2        12
    I2(5)     R3        2
    I2(5)     R6        1
    MARKER    'MARKER'                 'INTEND'
    C3(4)     OBJ       4
    C3(4)     R0        -4
    C3(4)     R1        2
    C3(4)     R4        18
    C3(4)     R5        10
    C4(5)     R0        1
    C4(5)     R1        1
    C4(5)     R3        18
    C4(5)     R4        13
    C4(5)     R5        8
    C5(1)     R2        1
    C6(1)     R3        1
    C7(1)     R4        1
    C8(1)     R5        1
    C9(1)     R6        1
RHS
    RHS1      R0        -151
    RHS1      R1        44
    RHS1      R2        67
    RHS1      R3        80
    RHS1      R4        52
    RHS1      R5        85
    RHS1      R6        1
BOUNDS
 UP BND1      I0(4)     1
 UP BND1      I1(4)     1
 UP BND1      I2(5)     1
ENDATA
